151 131 148 161 178 86 176 146 192 129 181 184 150 126 137 198 37 196 102 10 88 147 105 114 142 111 109 0 49 38 82 66 171 11 107 59 89 163 27 40 193 160 180 168 135 64 39 54 5 62 46 97 118 122 84 72 76 144 36 164 108 187 67 170 152 69 7 157 167 1 43 183 61 74 45 42 8 134 51 17 68 153 12 65 139 120 165 3 23 78 24 2 185 197 18 125 25 79 4 154 81 20 96 28 173 119 35 31 41 52 15 194 34 100 53 166 136 50 83 179 149 19 87 70 195 123 113 30 48 175 127 138 159 155 132 174 189 92 32 75 121 140 77 16 110 186 14 141 116 73 103 9 93 95 13 112 22 156 133 115 106 21 90 57 91 191 130 33 29 177 47 190 169 172 58 63 85 101 80 199 188 124 145 55 44 162 98 117 94 182 56 6 143 128 104 71 26 158 99 60  
151 131 148 106 178 86 176 146 192 129 181 184 150 126 137 198 37 196 102 10 88 147 105 114 142 111 109 49 38 82 171 11 107 59 89 163 27 193 160 180 168 135 64 39 54 5 62 46 97 122 84 72 76 144 36 164 108 187 67 170 152 69 7 157 167 1 43 183 61 74 45 42 134 51 17 83 153 12 65 139 120 165 3 23 78 24 2 185 197 18 125 25 79 4 81 20 96 28 173 80 35 31 41 52 15 194 34 53 166 136 68 179 149 19 87 70 123 113 138 159 21 132 174 189 92 32 75 13 100 140 77 121 127 48 16 110 50 0 112 90 33 6 130 177 91 182 66 93 175 145 22 8 115 14 141 116 73 103 9 186 95 60 199 156 57 195 47 190 63 169 172 85 101 118 40 119 154 161 29 143 155 133 188 158 44 117 58 104 128 55 56 162 98 94 26 124 71 191 99 30  
151 131 148 178 86 176 146 192 129 181 184 150 126 137 198 37 196 102 10 88 147 105 114 142 111 109 0 175 49 38 82 66 171 11 107 59 89 163 27 40 193 160 180 168 135 64 39 54 5 62 46 97 118 122 84 72 76 144 36 164 108 187 67 170 152 69 7 157 167 1 43 183 61 74 45 42 8 134 51 17 68 153 12 65 139 63 165 3 23 78 24 2 185 197 18 125 25 79 4 154 81 20 117 28 173 80 35 31 41 52 15 194 34 53 166 136 50 83 179 149 19 87 70 195 123 113 138 159 21 132 174 189 92 32 75 13 100 140 77 121 93 127 90 191 33 30 48 130 96 16 110 186 14 141 116 73 103 9 95 112 22 156 133 115 85 106 155 57 91 161 199 128 6 29 177 47 190 120 169 172 58 98 119 124 188 162 104 44 56 94 182 143 145 158 60 99 71 101 55 26  
151 131 148 178 86 176 146 192 129 181 184 150 126 137 198 37 196 102 10 88 147 105 114 142 111 109 0 49 38 82 66 171 11 107 59 89 163 27 40 193 160 180 168 135 64 39 54 5 62 46 97 118 122 84 72 76 144 36 164 108 187 67 170 152 69 7 157 167 1 43 183 61 74 45 42 8 134 51 17 68 153 12 65 139 120 165 3 23 78 24 2 185 197 18 125 25 79 4 81 20 96 28 173 80 35 31 41 52 15 194 34 53 166 136 50 83 149 19 87 70 73 123 113 138 159 132 174 189 92 32 75 13 100 140 77 121 93 127 179 48 16 110 186 14 141 116 195 103 9 95 128 22 156 133 115 30 85 106 21 90 155 57 91 191 130 33 154 161 199 112 6 29 177 47 60 190 63 169 172 101 145 119 175 143 188 44 117 58 104 158 55 56 162 99 94 26 182 71 124 98  
151 131 148 106 178 86 176 146 192 129 181 184 150 126 137 198 37 196 102 10 88 147 105 114 142 111 109 49 38 82 171 11 107 59 89 163 27 193 160 180 168 135 64 39 54 5 62 46 97 96 121 127 48 122 84 72 76 144 36 164 108 187 67 170 152 69 7 157 167 1 43 183 61 74 45 42 8 134 51 17 68 153 12 65 139 120 165 3 23 78 24 2 185 197 18 125 25 79 4 154 81 20 117 28 173 80 35 31 41 52 15 194 34 53 166 136 50 83 179 149 19 87 70 195 123 113 138 159 21 132 174 189 92 32 75 13 100 140 77 16 110 0 112 90 33 6 130 177 91 182 66 93 175 145 22 115 14 141 116 104 103 9 186 95 60 199 156 57 47 190 63 169 172 85 101 118 40 119 161 29 143 155 133 188 158 44 58 73 128 55 56 162 98 94 26 124 71 191 99 30  
151 131 148 106 178 86 176 146 192 129 181 184 150 126 137 198 37 196 102 10 88 147 105 114 142 111 109 9 49 38 82 171 11 107 59 89 163 27 193 160 180 168 135 64 39 54 5 62 46 85 122 84 72 76 144 36 164 108 187 67 170 152 69 7 157 167 1 43 183 61 74 45 42 134 51 17 68 153 12 65 139 120 165 3 23 78 24 2 185 197 18 125 25 79 4 81 20 96 28 173 80 35 31 41 52 15 194 34 53 166 136 73 83 179 149 19 87 70 195 123 113 138 159 21 132 174 189 92 32 75 13 100 140 77 121 127 48 16 110 186 14 141 116 50 103 0 95 112 90 33 130 115 199 60 177 91 156 182 66 57 6 47 190 93 175 145 22 8 63 169 172 118 101 40 97 119 154 161 29 143 155 133 188 158 44 117 58 104 128 55 56 162 98 94 26 124 71 191 99 30  
151 131 148 178 86 176 146 192 129 181 184 150 126 137 198 37 196 102 10 88 147 105 114 142 111 109 0 49 38 82 171 11 107 59 89 163 27 193 160 180 45 69 135 64 39 54 5 62 46 97 122 84 72 76 144 36 164 108 187 67 170 152 7 167 1 43 183 61 74 168 134 42 51 17 175 153 12 65 139 120 165 3 23 78 24 2 185 197 18 125 25 79 4 68 81 20 96 28 173 80 35 31 41 52 15 194 34 53 166 136 50 83 149 19 87 70 195 123 113 138 159 132 174 189 92 32 75 13 100 140 77 127 179 48 16 110 14 141 116 73 115 30 106 21 90 91 191 130 33 199 112 177 103 9 186 95 121 60 156 66 57 6 47 190 93 145 22 8 63 169 172 118 101 40 85 119 154 161 29 143 155 133 188 44 117 58 104 128 158 55 56 162 98 94 26 182 71 124 99 157  
151 131 148 106 178 198 137 86 176 146 192 129 181 184 150 126 142 111 37 196 102 147 105 10 88 114 109 0 49 38 82 66 171 11 107 59 89 163 27 40 193 160 180 168 135 64 39 54 5 62 46 97 118 122 84 72 76 144 36 164 108 187 67 170 152 69 7 157 167 1 43 183 61 74 45 42 8 134 51 17 68 153 12 65 139 120 165 3 23 78 24 2 185 197 18 125 25 79 4 154 63 20 58 28 173 80 35 31 41 52 15 194 34 53 166 136 50 83 179 149 19 87 70 195 123 113 138 159 21 132 174 189 92 32 75 13 100 140 77 121 93 127 90 191 33 30 48 130 112 91 16 110 115 14 141 116 73 103 9 186 95 60 199 156 57 6 47 190 81 169 172 85 101 145 22 119 175 161 29 143 96 155 133 188 44 117 104 128 158 55 56 162 98 26 94 182 71 124 99 177  
151 131 148 178 86 176 146 192 129 181 184 150 126 137 198 37 196 102 10 88 147 105 114 142 111 109 0 49 38 82 171 11 107 59 89 163 27 193 160 180 45 69 135 64 39 54 5 62 46 97 122 84 72 76 144 36 164 108 187 67 170 152 7 167 1 43 183 61 74 168 134 42 51 17 68 153 87 65 139 120 165 3 23 78 24 2 185 197 18 125 25 79 4 175 81 20 96 28 173 80 35 31 41 52 15 194 34 53 166 136 50 83 149 19 12 70 195 123 113 138 159 132 174 189 92 32 75 13 100 140 77 127 179 48 16 110 14 141 116 73 115 30 106 21 90 91 191 130 33 199 112 177 103 9 186 95 121 60 156 66 57 6 47 190 93 145 22 8 63 169 172 118 101 40 85 119 154 161 29 143 155 133 188 44 117 58 104 128 158 55 56 162 98 94 26 182 71 124 99 157  
151 131 148 106 178 86 176 146 192 129 181 184 150 126 137 198 37 196 102 10 147 105 142 111 88 114 109 0 49 38 82 66 171 11 107 59 89 163 27 40 193 160 180 168 135 64 39 54 5 62 46 97 118 122 84 72 76 144 36 164 108 187 67 170 152 69 7 157 167 1 43 183 61 74 45 42 8 134 51 17 68 153 12 65 139 120 165 3 73 44 24 2 185 197 18 125 25 83 23 79 4 81 20 96 28 173 80 35 31 41 52 15 194 34 53 166 136 179 149 19 87 70 123 113 138 159 21 132 174 189 92 32 75 13 100 140 77 121 58 48 16 110 50 112 90 33 6 130 177 91 182 93 175 145 22 115 14 141 116 103 9 186 95 60 199 156 57 195 47 190 63 169 172 85 101 119 154 161 29 143 155 133 188 158 78 117 127 104 128 55 56 162 98 94 26 124 71 191 99 30  
151 131 148 178 198 137 86 176 146 192 129 181 184 150 126 142 111 37 196 102 147 105 10 88 114 109 0 49 38 82 66 171 11 107 59 89 163 27 40 193 160 180 168 135 64 39 54 5 62 46 97 118 31 122 84 72 87 144 36 164 108 187 67 170 152 69 7 157 167 1 43 183 61 74 45 42 8 134 51 17 68 153 12 65 139 63 165 3 23 78 24 2 185 18 125 25 173 4 175 81 20 96 28 79 80 35 41 52 15 194 34 53 166 136 50 83 149 19 76 70 195 123 169 138 159 132 174 189 92 32 75 13 100 140 77 121 93 127 179 197 154 117 113 21 90 191 33 30 48 130 16 110 186 14 141 116 73 103 9 95 112 22 156 133 115 85 106 155 57 91 161 199 128 6 29 177 47 190 120 172 58 98 182 145 60 101 119 143 188 44 104 158 55 56 162 94 26 71 124 99  
151 131 148 106 178 86 176 146 192 129 181 184 150 126 137 198 37 196 135 10 88 147 105 114 142 111 109 49 38 82 171 11 107 59 89 163 27 193 160 180 168 102 64 39 54 5 62 46 97 122 84 72 76 144 36 164 108 187 67 170 152 69 7 157 167 1 43 183 61 74 45 42 52 51 17 83 153 12 123 139 15 165 3 23 78 24 2 185 197 18 125 25 79 4 81 20 96 28 136 80 35 31 41 134 120 194 34 53 166 173 68 179 149 19 87 70 65 113 138 159 21 132 174 189 92 32 75 13 100 140 77 121 127 48 16 110 50 0 112 90 33 6 130 177 91 182 66 93 175 145 22 8 115 14 141 116 73 103 9 186 95 60 199 156 57 195 47 190 63 169 172 85 101 118 40 119 154 161 29 143 155 133 188 158 44 117 58 104 128 55 56 162 98 94 26 124 71 191 99 30  
151 131 148 178 86 176 146 192 129 181 184 150 126 137 198 37 196 102 10 88 147 105 114 142 111 109 0 49 38 82 66 171 11 107 59 89 163 27 40 193 160 180 168 135 64 39 54 5 62 46 97 118 122 84 72 76 144 36 164 108 187 67 170 152 69 7 157 167 1 43 183 61 74 45 42 8 134 51 17 68 153 12 65 139 63 165 3 23 78 24 2 185 18 125 25 173 4 175 169 20 96 28 79 80 35 31 41 52 15 194 34 53 166 136 50 83 149 19 87 70 195 123 81 138 159 132 174 189 92 32 75 13 100 140 77 121 93 127 179 197 154 117 113 21 90 191 33 30 48 130 16 110 186 14 141 116 73 103 9 95 112 22 156 133 115 85 106 155 57 91 161 199 128 6 29 177 47 190 120 172 58 98 119 101 188 124 145 55 44 162 94 182 56 143 104 71 26 158 99 60  
151 131 148 161 178 86 176 146 192 129 181 184 150 126 137 198 37 196 102 10 88 147 105 114 142 111 109 0 49 38 82 66 171 11 107 59 89 163 27 40 193 160 180 168 135 64 39 54 5 62 46 97 118 122 84 72 76 144 36 164 108 187 67 170 179 69 7 157 167 1 43 183 61 74 45 42 8 134 51 17 68 153 12 65 139 120 165 3 23 78 24 2 185 197 18 125 25 79 4 154 63 20 58 28 173 80 35 31 41 52 15 194 34 53 166 136 50 83 152 149 19 87 70 195 123 113 138 159 21 132 174 121 92 32 75 13 100 140 77 189 93 127 90 191 33 30 48 130 112 91 16 110 98 14 141 116 73 103 9 186 95 60 199 156 57 6 47 190 81 96 119 175 155 22 133 106 29 177 169 172 85 101 188 124 145 55 44 162 115 117 94 182 56 143 128 104 71 26 158 99  
